DIMACS2
20 46 185 256 12 1 195 288 172 80 15 148 138 68 318 157 161 4 175 292 142
p edge 320 648
e 0 101 1.0
e 1 198 12.0
e 1 236 35.0
e 1 251 36.0
e 1 79 44.0
e 1 18 26.0
e 1 120 3.0
e 1 199 39.0
e 1 96 37.0
e 1 257 2.0
e 1 310 32.0
e 1 80 17.0
e 1 44 22.0
e 1 283 47.0
e 1 132 46.0
e 1 97 37.0
e 1 21 3.0
e 2 231 3.0
e 3 265 1.0
e 4 132 13.0
e 4 37 3.0
e 4 281 3.0
e 4 252 12.0
e 4 108 15.0
e 4 25 46.0
e 4 260 35.0
e 4 128 41.0
e 4 240 13.0
e 4 29 42.0
e 4 209 3.0
e 4 77 23.0
e 4 225 36.0
e 4 227 10.0
e 4 309 44.0
e 4 208 47.0
e 5 192 1.0
e 5 174 2.0
e 6 201 2.0
e 6 234 1.0
e 7 199 1.0
e 7 239 2.0
e 8 36 2.0
e 9 144 1.0
e 9 128 3.0
e 10 175 29.0
e 10 168 7.0
e 10 242 10.0
e 11 273 1.0
e 12 316 31.0
e 12 288 36.0
e 12 309 15.0
e 12 41 41.0
e 12 86 24.0
e 12 181 36.0
e 12 254 23.0
e 12 160 35.0
e 12 61 12.0
e 12 107 46.0
e 12 97 31.0
e 12 219 9.0
e 12 200 10.0
e 12 76 5.0
e 12 190 31.0
e 12 77 14.0
e 12 224 42.0
e 13 118 1.0
e 14 258 1.0
e 15 238 25.0
e 15 284 15.0
e 15 181 17.0
e 15 290 24.0
e 15 132 15.0
e 15 46 5.0
e 15 274 46.0
e 15 189 34.0
e 15 292 44.0
e 15 197 9.0
e 15 133 44.0
e 15 154 43.0
e 15 293 19.0
e 15 248 39.0
e 15 206 27.0
e 15 269 14.0
e 16 257 1.0
e 17 198 1.0
e 18 200 1.0
e 19 180 1.0
e 20 34 1.0
e 21 313 1.0
e 22 130 2.0
e 23 289 1.0
e 24 315 1.0
e 25 261 1.0
e 25 80 14.0
e 26 72 2.0
e 27 41 1.0
e 28 38 2.0
e 29 99 1.0
e 30 126 1.0
e 31 85 1.0
e 32 277 1.0
e 33 35 1.0
e 34 93 1.0
e 35 191 1.0
e 36 294 1.0
e 37 42 1.0
e 38 234 1.0
e 39 293 2.0
e 40 51 1.0
e 41 0 2.0
e 42 28 2.0
e 43 300 1.0
e 44 251 1.0
e 45 160 1.0
e 45 0 1.0
e 46 178 26.0
e 46 126 29.0
e 46 228 9.0
e 46 224 31.0
e 46 133 29.0
e 46 270 1.0
e 46 166 12.0
e 46 259 31.0
e 46 135 9.0
e 46 13 25.0
e 46 22 39.0
e 46 268 45.0
e 46 29 29.0
e 46 110 47.0
e 46 278 28.0
e 47 158 1.0
e 48 117 1.0
e 49 61 3.0
e 49 168 10.0
e 50 23 1.0
e 51 253 1.0
e 52 258 1.0
e 53 229 1.0
e 53 128 6.0
e 54 149 1.0
e 54 315 1.0
e 55 241 2.0
e 56 119 1.0
e 57 288 43.0
e 58 267 1.0
e 59 74 1.0
e 59 144 2.0
e 60 30 1.0
e 61 259 5.0
e 62 184 1.0
e 63 132 5.0
e 64 110 1.0
e 64 262 1.0
e 65 119 1.0
e 66 4 25.0
e 66 126 1.0
e 67 157 11.0
e 68 311 25.0
e 68 211 8.0
e 68 98 26.0
e 68 53 9.0
e 68 165 11.0
e 68 35 2.0
e 68 274 19.0
e 68 310 39.0
e 68 271 3.0
e 68 237 6.0
e 68 251 11.0
e 68 160 18.0
e 68 54 31.0
e 68 166 36.0
e 68 259 3.0
e 68 134 27.0
e 68 226 41.0
e 69 10 5.0
e 69 176 2.0
e 70 227 2.0
e 70 103 2.0
e 71 45 1.0
e 72 293 1.0
e 73 46 36.0
e 74 1 13.0
e 75 157 24.0
e 75 238 1.0
e 75 84 3.0
e 76 208 1.0
e 77 88 2.0
e 78 255 1.0
e 79 41 2.0
e 80 156 38.0
e 80 85 40.0
e 80 290 27.0
e 80 58 11.0
e 80 306 33.0
e 80 220 39.0
e 80 54 37.0
e 80 29 35.0
e 80 195 8.0
e 80 235 33.0
e 80 304 22.0
e 80 59 4.0
e 80 252 2.0
e 81 111 1.0
e 82 93 1.0
e 83 19 1.0
e 84 148 26.0
e 84 316 1.0
e 85 83 1.0
e 86 214 1.0
e 87 284 1.0
e 88 80 21.0
e 89 155 1.0
e 90 194 1.0
e 91 252 1.0
e 92 191 1.0
e 92 171 1.0
e 93 302 1.0
e 94 278 1.0
e 94 247 1.0
e 95 286 1.0
e 96 8 1.0
e 97 109 1.0
e 98 32 2.0
e 99 27 1.0
e 100 308 1.0
e 101 39 2.0
e 102 30 1.0
e 103 190 2.0
e 104 210 1.0
e 105 264 2.0
e 106 58 1.0
e 107 308 1.0
e 108 306 2.0
e 109 111 1.0
e 110 136 1.0
e 111 16 1.0
e 112 147 1.0
e 113 181 2.0
e 114 278 1.0
e 115 140 1.0
e 116 165 1.0
e 117 233 1.0
e 118 33 2.0
e 119 286 1.0
e 120 289 5.0
e 120 47 1.0
e 121 125 1.0
e 122 226 1.0
e 122 192 1.0
e 123 284 1.0
e 124 296 1.0
e 125 268 2.0
e 126 95 1.0
e 127 3 1.0
e 128 148 14.0
e 129 317 6.0
e 129 103 4.0
e 130 113 1.0
e 131 115 1.0
e 132 83 2.0
e 133 221 2.0
e 134 159 1.0
e 135 291 1.0
e 136 8 1.0
e 137 307 2.0
e 138 235 46.0
e 138 314 45.0
e 138 166 8.0
e 138 78 17.0
e 138 186 38.0
e 138 274 33.0
e 138 12 19.0
e 138 262 15.0
e 138 1 14.0
e 138 47 9.0
e 138 15 19.0
e 138 18 38.0
e 138 86 16.0
e 138 269 39.0
e 138 176 4.0
e 138 170 41.0
e 139 261 2.0
e 140 222 1.0
e 141 8 2.0
e 142 211 2.0
e 142 153 25.0
e 142 192 26.0
e 142 25 14.0
e 142 283 44.0
e 142 91 17.0
e 142 164 43.0
e 142 149 14.0
e 142 86 47.0
e 142 146 8.0
e 142 235 37.0
e 142 226 38.0
e 142 63 38.0
e 142 38 23.0
e 142 133 10.0
e 142 173 47.0
e 142 253 17.0
e 143 165 1.0
e 143 187 1.0
e 144 231 1.0
e 145 83 1.0
e 145 30 6.0
e 146 111 1.0
e 147 244 2.0
e 148 224 8.0
e 148 312 43.0
e 148 133 10.0
e 148 176 26.0
e 148 196 29.0
e 148 301 31.0
e 148 180 8.0
e 148 66 45.0
e 148 8 28.0
e 148 31 18.0
e 148 153 9.0
e 148 134 12.0
e 148 253 35.0
e 148 313 34.0
e 149 256 1.0
e 150 191 1.0
e 150 164 1.0
e 151 66 4.0
e 152 230 2.0
e 153 33 1.0
e 154 182 2.0
e 155 174 1.0
e 156 193 1.0
e 157 249 30.0
e 157 187 7.0
e 157 10 43.0
e 157 248 33.0
e 157 227 15.0
e 157 313 11.0
e 157 275 41.0
e 157 131 20.0
e 157 59 15.0
e 157 186 20.0
e 157 312 17.0
e 157 17 39.0
e 157 195 17.0
e 157 60 35.0
e 157 170 25.0
e 158 71 1.0
e 159 108 1.0
e 160 219 1.0
e 161 91 23.0
e 161 215 43.0
e 161 195 49.0
e 161 107 1.0
e 161 193 24.0
e 161 214 46.0
e 161 5 6.0
e 161 35 32.0
e 161 294 16.0
e 161 134 25.0
e 161 316 44.0
e 161 207 20.0
e 161 135 39.0
e 161 255 42.0
e 161 184 40.0
e 161 267 45.0
e 161 295 9.0
e 162 307 2.0
e 163 272 1.0
e 164 167 1.0
e 165 308 1.0
e 166 106 1.0
e 167 189 12.0
e 168 312 7.0
e 168 192 3.0
e 169 272 1.0
e 170 201 1.0
e 171 109 1.0
e 172 191 11.0
e 172 299 46.0
e 172 117 40.0
e 172 27 27.0
e 172 103 35.0
e 172 232 38.0
e 172 279 46.0
e 172 254 43.0
e 172 91 17.0
e 172 62 3.0
e 172 194 5.0
e 172 200 4.0
e 172 244 20.0
e 172 19 9.0
e 172 159 49.0
e 172 211 27.0
e 173 264 1.0
e 174 262 1.0
e 175 145 31.0
e 175 290 24.0
e 175 24 47.0
e 175 201 38.0
e 175 221 12.0
e 175 120 47.0
e 175 222 22.0
e 175 34 23.0
e 175 96 10.0
e 175 189 15.0
e 175 232 36.0
e 175 46 28.0
e 175 245 38.0
e 175 284 20.0
e 175 177 2.0
e 175 203 8.0
e 176 26 1.0
e 177 152 1.0
e 178 239 1.0
e 179 277 2.0
e 179 107 1.0
e 180 209 1.0
e 181 140 2.0
e 182 306 1.0
e 183 254 1.0
e 184 118 1.0
e 185 178 45.0
e 185 204 31.0
e 185 122 27.0
e 185 202 41.0
e 185 157 24.0
e 185 217 41.0
e 185 96 43.0
e 185 298 43.0
e 185 249 3.0
e 185 295 17.0
e 185 254 48.0
e 185 296 45.0
e 185 255 11.0
e 185 51 10.0
e 185 223 25.0
e 186 222 1.0
e 187 207 1.0
e 188 198 1.0
e 189 172 19.0
e 189 232 10.0
e 190 67 2.0
e 191 196 1.0
e 192 108 2.0
e 193 98 1.0
e 194 100 1.0
e 195 162 33.0
e 195 167 34.0
e 195 128 36.0
e 195 78 21.0
e 195 14 11.0
e 195 110 30.0
e 195 112 31.0
e 195 159 2.0
e 195 299 13.0
e 195 187 18.0
e 195 202 10.0
e 195 303 4.0
e 195 134 4.0
e 195 181 17.0
e 196 316 2.0
e 197 65 2.0
e 198 148 31.0
e 199 56 1.0
e 200 252 1.0
e 201 306 1.0
e 202 173 1.0
e 203 85 1.0
e 204 129 4.0
e 205 0 1.0
e 206 167 1.0
e 207 151 1.0
e 208 38 1.0
e 209 115 1.0
e 210 116 1.0
e 211 77 1.0
e 212 2 2.0
e 213 214 1.0
e 213 263 2.0
e 214 106 1.0
e 215 249 1.0
e 216 63 1.0
e 217 207 1.0
e 218 33 1.0
e 219 158 1.0
e 220 104 1.0
e 221 185 37.0
e 222 301 1.0
e 223 87 2.0
e 224 119 4.0
e 225 158 1.0
e 226 139 1.0
e 227 265 1.0
e 228 127 1.0
e 229 151 1.0
e 230 204 1.0
e 231 273 1.0
e 232 51 2.0
e 233 18 2.0
e 234 263 3.0
e 235 191 2.0
e 236 123 1.0
e 237 11 1.0
e 238 276 1.0
e 239 63 1.0
e 240 205 1.0
e 241 112 1.0
e 242 162 1.0
e 242 312 3.0
e 243 272 1.0
e 244 138 8.0
e 245 26 3.0
e 246 109 1.0
e 247 19 1.0
e 248 270 1.0
e 249 80 3.0
e 250 22 1.0
e 250 150 1.0
e 251 123 1.0
e 252 106 1.0
e 253 121 1.0
e 254 57 1.0
e 255 13 1.0
e 256 261 20.0
e 256 76 41.0
e 256 20 12.0
e 256 211 8.0
e 256 49 7.0
e 256 197 43.0
e 256 115 19.0
e 256 34 9.0
e 256 237 49.0
e 256 92 24.0
e 256 175 8.0
e 256 188 44.0
e 256 172 28.0
e 256 235 47.0
e 257 232 1.0
e 258 216 1.0
e 259 15 10.0
e 260 91 2.0
e 261 315 1.0
e 262 28 1.0
e 263 55 1.0
e 264 210 1.0
e 265 239 1.0
e 266 67 2.0
e 266 38 1.0
e 267 190 1.0
e 268 13 2.0
e 269 131 1.0
e 270 281 1.0
e 271 73 1.0
e 272 313 2.0
e 273 296 1.0
e 274 210 1.0
e 275 50 1.0
e 276 73 1.0
e 277 185 18.0
e 278 209 1.0
e 279 76 1.0
e 280 0 2.0
e 281 291 1.0
e 282 300 1.0
e 283 95 1.0
e 284 199 1.0
e 285 62 1.0
e 285 149 2.0
e 286 302 1.0
e 287 0 2.0
e 288 168 2.0
e 288 157 41.0
e 288 305 27.0
e 288 267 37.0
e 288 10 22.0
e 288 150 11.0
e 288 76 42.0
e 288 59 38.0
e 288 68 27.0
e 288 310 36.0
e 288 147 17.0
e 288 112 41.0
e 288 98 7.0
e 288 113 35.0
e 288 279 5.0
e 289 256 35.0
e 290 277 2.0
e 291 208 2.0
e 292 303 30.0
e 292 18 8.0
e 292 186 10.0
e 292 35 1.0
e 292 60 20.0
e 292 36 9.0
e 292 135 46.0
e 292 153 14.0
e 292 283 24.0
e 292 168 30.0
e 292 234 10.0
e 292 150 26.0
e 292 223 8.0
e 292 136 47.0
e 292 31 45.0
e 292 84 35.0
e 293 198 1.0
e 294 102 1.0
e 295 281 1.0
e 296 10 1.0
e 297 204 2.0
e 297 60 1.0
e 298 173 1.0
e 299 171 1.0
e 300 193 1.0
e 301 11 1.0
e 302 295 1.0
e 303 149 1.0
e 304 58 1.0
e 305 132 6.0
e 306 187 2.0
e 307 123 2.0
e 308 17 1.0
e 309 272 1.0
e 310 243 1.0
e 311 45 1.0
e 312 180 1.0
e 313 258 2.0
e 314 273 1.0
e 315 248 1.0
e 316 114 2.0
e 317 256 9.0
e 318 245 31.0
e 318 147 49.0
e 318 17 39.0
e 318 15 29.0
e 318 130 27.0
e 318 230 40.0
e 318 55 14.0
e 318 168 11.0
e 318 260 22.0
e 318 261 48.0
e 318 12 3.0
e 318 87 9.0
e 318 195 38.0
e 318 43 35.0
e 318 97 48.0
e 318 31 30.0
e 318 127 47.0
e 319 2 1.0
